(set-logic ALL)
(declare-fun var0 () String)
(assert (str.in_re var0 (re.++ (re.union (re.* (str.to_re "0")) (re.* (str.to_re "11"))) (re.++ (re.+ (re.+ (str.to_re "222"))) (re.++ (re.union (re.+ (str.to_re "333")) (re.union (str.to_re "444") (str.to_re "555"))) (re.++ (re.+ (re.union (str.to_re "66") (str.to_re "77"))) (re.++ (re.union (re.union (str.to_re "88") (str.to_re "999")) (re.* (str.to_re "aaa"))) (re.++ (re.+ (re.union (str.to_re "b") (str.to_re "ccc"))) (re.++ (re.+ (re.+ (str.to_re "d"))) (re.++ (re.* (re.union (str.to_re "ee") (str.to_re "ff"))) (re.++ (re.+ (re.union (str.to_re "g") (str.to_re "hhh"))) (re.++ (re.union (re.union (str.to_re "i") (str.to_re "jj")) (re.* (str.to_re "kkk"))) (re.++ (re.union (re.* (str.to_re "lll")) (re.+ (str.to_re "mm"))) (re.++ (re.union (re.+ (str.to_re "nnn")) (re.* (str.to_re "oo"))) (re.++ (re.* (re.+ (str.to_re "pp"))) (re.++ (re.union (re.union (str.to_re "qq") (str.to_re "r")) (re.* (str.to_re "ss"))) (re.++ (re.* (re.+ (str.to_re "ttt"))) (re.++ (re.* (re.union (str.to_re "uu") (str.to_re "vvv"))) (re.++ (re.union (re.* (str.to_re "www")) (re.+ (str.to_re "xxx"))) (re.++ (re.union (re.+ (str.to_re "yyy")) (re.union (str.to_re "zz") (str.to_re "AAA"))) (re.++ (re.+ (re.+ (str.to_re "B"))) (re.++ (re.union (re.union (str.to_re "CCC") (str.to_re "DDD")) (re.* (str.to_re "EEE"))) (re.+ (re.union (str.to_re "F") (str.to_re "G")))))))))))))))))))))))))
(assert (not (str.in_re var0 (re.++ (re.+ (re.union (str.to_re "0") (str.to_re "1"))) (re.++ (re.* (re.+ (str.to_re "22"))) (re.++ (re.* (re.union (str.to_re "33") (str.to_re "44"))) (re.++ (re.* (re.* (str.to_re "55"))) (re.++ (re.union (re.* (str.to_re "666")) (re.+ (str.to_re "77"))) (re.++ (re.* (re.union (str.to_re "8") (str.to_re "999"))) (re.++ (re.* (re.+ (str.to_re "aaa"))) (re.++ (re.+ (re.* (str.to_re "bb"))) (re.++ (re.+ (re.union (str.to_re "c") (str.to_re "ddd"))) (re.++ (re.union (re.* (str.to_re "e")) (re.+ (str.to_re "ff"))) (re.++ (re.union (re.union (str.to_re "g") (str.to_re "h")) (re.* (str.to_re "ii"))) (re.++ (re.+ (re.union (str.to_re "jj") (str.to_re "k"))) (re.++ (re.+ (re.union (str.to_re "l") (str.to_re "mmm"))) (re.++ (re.+ (re.+ (str.to_re "n"))) (re.++ (re.union (re.+ (str.to_re "o")) (re.+ (str.to_re "p"))) (re.++ (re.* (re.* (str.to_re "qq"))) (re.++ (re.* (re.union (str.to_re "r") (str.to_re "sss"))) (re.++ (re.+ (re.* (str.to_re "t"))) (re.++ (re.union (re.union (str.to_re "uu") (str.to_re "vvv")) (re.+ (str.to_re "www"))) (re.++ (re.* (re.union (str.to_re "x") (str.to_re "y"))) (re.+ (re.* (str.to_re "z"))))))))))))))))))))))))))
(check-sat)